qbf_easy_train/easy_5967_UNSAT.qdimacs
p cnf 34 95
a 9 6 30 0
e 1 2 3 4 5 7 8 10 11 12 13 14 15 16 17 18 19 20 21 22 23 24 25 26 27 28 29 31 32 33 34 0
3 -2 0
3 -1 0
2 1 -3 0
5 -3 0
5 -4 0
3 4 -5 0
1 -5 -6 0
-1 5 -6 0
1 5 6 0
-1 -5 6 0
-8 -4 0
-8 7 0
4 -7 8 0
9 7 0
9 -1 0
-7 1 -9 0
-10 -8 0
-10 -9 0
8 9 10 0
11 6 0
11 10 0
-6 -10 -11 0
7 12 -13 0
-7 -12 -13 0
7 -12 13 0
-7 12 13 0
-14 -13 0
-14 -1 0
13 1 14 0
14 15 0
-14 15 0
11 15 -16 0
-11 -15 -16 0
11 -15 16 0
-11 15 16 0
-1 -14 -17 0
1 14 -17 0
-1 14 17 0
1 -14 17 0
-18 -7 -19 0
18 7 -19 0
-18 7 19 0
18 -7 19 0
-14 3 -20 0
14 -3 -20 0
-14 -3 20 0
14 3 20 0
-21 19 0
-21 -20 0
-19 20 21 0
17 21 -22 0
-17 -21 -22 0
17 -21 22 0
-17 21 22 0
23 -14 0
23 -5 0
14 5 -23 0
-9 -24 -25 0
9 24 -25 0
-9 24 25 0
9 -24 25 0
26 23 0
26 -25 0
-23 25 -26 0
27 22 0
27 26 0
-22 -26 -27 0
-28 29 0
28 29 0
-30 29 0
-30 4 0
-29 -4 30 0
31 -14 0
31 18 0
14 -18 -31 0
32 -30 0
32 -31 0
30 31 -32 0
-33 27 0
-33 -32 0
-27 32 33 0
-16 -33 -34 0
16 33 -34 0
-16 33 34 0
16 -33 34 0
20 -3 -12 30 9 0
1 5 -29 11 -26 -18 -7 0
2 28 19 0
28 7 -16 -13 2 0
-3 -17 10 -9 33 -19 1 0
-9 -21 -16 8 0
-2 17 -3 -11 0
-18 8 31 -22 13 -4 -26 0
-15 -19 12 1 5 10 30 0
34 0
