sat_easy_train/easy_5967_UNSAT.dimacs
p cnf 133 447
-3 1 0
-3 2 0
-1 -2 3 0
4 3 0
4 -1 0
-3 1 -4 0
-6 7 0
6 7 0
-5 7 -8 0
5 -7 -8 0
-5 -7 8 0
5 7 8 0
-9 4 0
-9 8 0
-4 -8 9 0
10 -6 0
10 -3 0
6 3 -10 0
-11 -8 0
-11 -10 0
8 10 11 0
12 -5 0
12 -3 0
5 3 -12 0
-11 12 -13 0
11 -12 -13 0
-11 -12 13 0
11 12 13 0
16 14 0
16 -15 0
-14 15 -16 0
3 -16 -17 0
-3 16 -17 0
3 16 17 0
-3 -16 17 0
3 5 -18 0
-3 -5 -18 0
3 -5 18 0
-3 5 18 0
19 -17 0
19 18 0
17 -18 -19 0
-20 -13 0
-20 -19 0
13 19 20 0
21 9 0
21 20 0
-9 -20 -21 0
-24 -22 0
-24 -23 0
22 23 24 0
25 24 0
25 16 0
-24 -16 -25 0
27 6 0
27 -26 0
-6 26 -27 0
28 27 0
28 -18 0
-27 18 -28 0
-29 -18 0
-29 -28 0
18 28 29 0
30 -11 0
30 -8 0
11 8 -30 0
29 30 -31 0
-29 -30 -31 0
29 -30 31 0
-29 30 31 0
-32 -2 0
-32 2 0
33 -32 0
33 -7 0
32 7 -33 0
-31 33 -34 0
31 -33 -34 0
-31 -33 34 0
31 33 34 0
25 34 -35 0
-25 -34 -35 0
25 -34 35 0
-25 34 35 0
7 11 -36 0
-7 -11 -36 0
7 -11 36 0
-7 11 36 0
-37 3 0
-37 36 0
-3 -36 37 0
-39 38 0
-39 3 0
-38 -3 39 0
40 -16 0
40 3 0
16 -3 -40 0
41 -39 0
41 40 0
39 -40 -41 0
-43 42 0
-43 6 0
-42 -6 43 0
44 41 0
44 43 0
-41 -43 -44 0
45 41 0
45 -44 0
-41 44 -45 0
-37 45 -46 0
37 -45 -46 0
-37 -45 46 0
37 45 46 0
-35 -46 -47 0
35 46 -47 0
-35 46 47 0
35 -46 47 0
-48 -15 0
-48 4 0
15 -4 48 0
-49 12 0
-49 48 0
-12 -48 49 0
47 49 -50 0
-47 -49 -50 0
47 -49 50 0
-47 49 50 0
-51 41 0
-51 5 0
-41 -5 51 0
51 -29 -52 0
-51 29 -52 0
51 29 52 0
-51 -29 52 0
54 18 0
54 2 0
-18 -2 -54 0
55 53 0
55 54 0
-53 -54 -55 0
56 5 0
56 7 0
-5 -7 -56 0
-55 56 -57 0
55 -56 -57 0
-55 -56 57 0
55 56 57 0
53 57 -58 0
-53 -57 -58 0
53 -57 58 0
-53 57 58 0
-52 58 -59 0
52 -58 -59 0
-52 -58 59 0
52 58 59 0
60 -54 0
60 42 0
54 -42 -60 0
6 8 -61 0
-6 -8 -61 0
6 -8 61 0
-6 8 61 0
61 -43 -62 0
-61 43 -62 0
61 43 62 0
-61 -43 62 0
-63 62 0
-63 62 0
-62 63 0
60 -63 -64 0
-60 63 -64 0
60 63 64 0
-60 -63 64 0
59 64 -65 0
-59 -64 -65 0
59 -64 65 0
-59 64 65 0
16 -42 -66 0
-16 42 -66 0
16 42 66 0
-16 -42 66 0
67 33 0
67 -66 0
-33 66 -67 0
68 -48 0
68 7 0
48 -7 -68 0
69 -67 0
69 68 0
67 -68 -69 0
-70 39 0
-70 40 0
-39 -40 70 0
71 5 0
71 11 0
-5 -11 -71 0
-72 8 0
-72 -71 0
-8 71 72 0
-73 72 0
-73 -16 0
-72 16 73 0
-74 -70 0
-74 73 0
70 -73 74 0
-54 -4 -75 0
54 4 -75 0
-54 4 75 0
54 -4 75 0
76 -11 0
76 48 0
11 -48 -76 0
75 76 -77 0
-75 -76 -77 0
75 -76 77 0
-75 76 77 0
78 74 0
78 77 0
-74 -77 -78 0
54 24 -79 0
-54 -24 -79 0
54 -24 79 0
-54 24 79 0
-80 79 0
-80 8 0
-79 -8 80 0
81 -80 0
81 -76 0
80 76 -81 0
78 -81 -82 0
-78 81 -82 0
78 81 82 0
-78 -81 82 0
-69 82 -83 0
69 -82 -83 0
-69 -82 83 0
69 82 83 0
84 -65 0
84 -83 0
65 83 -84 0
-86 -85 0
-86 53 0
85 -53 86 0
57 -86 -87 0
-57 86 -87 0
57 86 87 0
-57 -86 87 0
-88 -86 0
-88 -3 0
86 3 88 0
-89 53 0
-89 -14 0
-53 14 89 0
-90 26 0
-90 89 0
-26 -89 90 0
91 -90 0
91 89 0
90 -89 -91 0
88 91 -92 0
-88 -91 -92 0
88 -91 92 0
-88 91 92 0
-93 87 0
-93 -92 0
-87 92 93 0
-94 -84 0
-94 -93 0
84 93 94 0
-95 -50 0
-95 94 0
50 -94 95 0
-97 96 0
-97 -14 0
-96 14 97 0
98 97 0
98 -27 0
-97 27 -98 0
-99 -31 -100 0
99 31 -100 0
-99 31 100 0
99 -31 100 0
98 -100 -101 0
-98 100 -101 0
98 100 101 0
-98 -100 101 0
14 -17 -102 0
-14 17 -102 0
14 17 102 0
-14 -17 102 0
103 -102 0
103 -55 0
102 55 -103 0
-104 -16 0
-104 38 0
16 -38 104 0
-104 -48 -105 0
104 48 -105 0
-104 48 105 0
104 -48 105 0
106 -103 0
106 -105 0
103 105 -106 0
-107 -85 0
-107 -85 0
85 107 0
-108 107 0
-108 16 0
-107 -16 108 0
106 -108 -109 0
-106 108 -109 0
106 108 109 0
-106 -108 109 0
-110 26 0
-110 61 0
-26 -61 110 0
111 110 0
111 -53 0
-110 53 -111 0
112 3 0
112 -22 0
-3 22 -112 0
-12 18 -113 0
12 -18 -113 0
-12 -18 113 0
12 18 113 0
-114 112 0
-114 -113 0
-112 113 114 0
-115 111 0
-115 -114 0
-111 114 115 0
-116 109 0
-116 -115 0
-109 115 116 0
-117 -89 0
-117 76 0
89 -76 117 0
-24 90 -118 0
24 -90 -118 0
-24 -90 118 0
24 90 118 0
-119 -117 0
-119 118 0
117 -118 119 0
-85 120 -121 0
85 -120 -121 0
-85 -120 121 0
85 120 121 0
119 -121 -122 0
-119 121 -122 0
119 121 122 0
-119 -121 122 0
102 -2 -123 0
-102 2 -123 0
102 2 123 0
-102 -2 123 0
124 6 0
124 -123 0
-6 123 -124 0
-125 2 0
-125 -61 0
-2 61 125 0
-126 124 0
-126 125 0
-124 -125 126 0
-127 -122 0
-127 126 0
122 -126 127 0
6 28 -128 0
-6 -28 -128 0
6 -28 128 0
-6 28 128 0
129 127 0
129 -128 0
-127 128 -129 0
116 129 -130 0
-116 -129 -130 0
116 -129 130 0
-116 129 130 0
-131 -101 0
-131 -130 0
101 130 131 0
-132 95 0
-132 -131 0
-95 131 132 0
-133 21 0
-133 -132 0
-21 132 133 0
109 107 0
77 84 -52 26 -127 0
69 -132 58 -81 -107 0
70 89 -6 0
4 121 110 97 99 0
-55 125 22 129 -108 0
100 -45 107 99 -59 38 0
7 -49 31 -94 0
26 107 -44 -3 108 2 0
25 -116 0
-81 18 -33 -14 0
-102 45 -49 0
61 24 -43 -68 0
-9 -76 33 -61 0
69 -113 43 -56 47 -13 0
18 -133 -45 -95 -126 0
-92 -46 -47 -37 0
17 62 51 -77 56 -130 0
-7 18 24 -68 0
-88 -126 23 74 -53 117 0
-132 -81 0
-88 -91 0
29 58 -119 0
102 -90 117 5 -125 -91 0
49 89 -119 133 0
9 -37 71 0
107 31 -54 0
5 -77 32 -110 0
-105 56 -25 -55 0
-54 95 23 -100 19 0
-38 83 29 0
-56 -59 68 -85 0
121 22 0
-74 -99 -5 -34 54 -73 0
64 58 85 20 0
-31 100 17 86 0
-1 65 -101 116 82 0
-31 24 4 35 77 3 0
47 119 0
75 117 3 -17 0
-77 -80 133 27 25 85 0
10 13 33 0
-43 127 0
-64 -16 124 -103 4 0
56 -98 -68 67 90 0
-58 96 0
94 73 0
-36 -38 0
-8 -85 103 -3 0
-103 -84 31 0
7 34 37 -105 0
-83 131 99 -29 -73 -102 0
39 -63 55 -10 0
-77 85 8 0
91 51 114 0
-112 133 17 -74 25 0
56 -118 104 105 132 0
-118 4 0
133 0
